# Node Net
 20   1
899   1
 18   1
900   1
877   1
781   2
481   2
  8   2
150   2
420   2
892   3
887   3
 16   3
301   3
 29   4
894   4
870   4
840   4
361   5
211   5
886   5
884   6
810   6
 61   6
811   7
  3   7
 28   8
151   8
881   9
 12   9
876  10
480  10
882  11
391  11
